NAME : gr96.tsp
COMMENT : Optimal tour for gr96.tsp
TYPE : TOUR
DIMENSION : 96
Total Length: 572.7706690630116
TOUR_SECTION
1
30
31
29
2
3
4
5
6
8
7
9
10
12
13
14
15
16
17
20
18
19
21
22
26
28
27
65
96
94
95
93
92
78
88
89
90
91
80
79
38
37
36
32
35
34
33
45
44
39
40
41
42
43
49
51
55
52
50
46
47
48
53
58
56
57
69
70
82
81
83
87
86
85
84
74
73
71
72
75
77
76
68
67
66
64
63
62
61
59
60
54
25
24
23
11
-1
EOF
